w = 30;
n = 29;
measures = [|10, 19,
|7, 25,
|9, 16,
|6, 24,
|6, 18,
|5, 21,
|4, 23,
|7, 13,
|7, 12,
|9, 9,
|10, 7,
|6, 11,
|6, 10,
|11, 5,
|7, 7,
|11, 4,
|4, 10,
|8, 5,
|7, 5,
|6, 5,
|2, 12,
|3, 6,
|3, 5,
|2, 7,
|4, 2,
|4, 2,
|4, 1,
|1, 4,
|2, 1,
|];
initial_x = [0, 10, 17, 0, 6, 12, 17, 21, 0, 7, 16, 0, 6, 12, 23, 0, 11, 15, 23, 0, 6, 8, 11, 14, 16, 20, 24, 28, 0];
initial_y = [0, 0, 0, 25, 25, 25, 25, 25, 49, 49, 49, 61, 61, 61, 61, 72, 72, 72, 72, 82, 82, 82, 82, 82, 82, 82, 82, 82, 94];